Route #1: 1 18 5 42 20 42 14 42 18 13 6 13 15 19 15 25 24 8 24 15 26 15 7 1 
Route #2: 1 33 2 9 32 29 32 27 32 23 2 17 10 11 31 11 40 11 34 16 45 43 45 38 13 1 
Route #3: 1 28 2 3 17 12 17 30 22 36 4 36 21 36 37 36 22 35 17 39 17 2 1 
Cost 708.0
